56693
58318
56553
56863
56629
57119
56292
56403
57442
56447
107689
108338
106385
106796
107396
107246
106308
103993
106835
105751
150083
149907
152993
153169
150287
148544
147471
152841
149568
149572
